NAME : portcgen-23-18
COMMENT : portcgen N=23, seed=18
TYPE : TSP
DIMENSION : 23
EDGE_WEIGHT_TYPE : EUC_2D
NODE_COORD_SECTION
1 258392 86797
2 -241363 393181
3 141942 515780
4 138542 96055
5 81668 156699
6 -168899 173401
7 -57911 290552
8 -341205 -312239
9 120062 235227
10 254826 162958
11 352679 -241496
12 106975 -350979
13 -67124 -65526
14 79851 259579
15 154547 -512758
16 -7363 279697
17 40037 -86643
18 -12297 5226
19 285030 23013
20 98979 -13067
21 -182873 -47792
22 233720 -103511
23 227386 208258
